p cnf 75 58
d 0.875 0.125
d 0.875 0.125
d 0.875 0.125
d 0.875 0.125
d 0.875 0.125
d 0.875 0.125
d 0.875 0.125
d 0.875 0.125
d 0.875 0.125
d 0.875 0.125
d 0.875 0.125
d 0.875 0.125
d 0.875 0.125
d 0.875 0.125
d 0.875 0.125
d 0.875 0.125
d 0.875 0.125
d 0.875 0.125
d 0.875 0.125
d 0.875 0.125
d 0.875 0.125
d 0.875 0.125
d 0.875 0.125
d 0.875 0.125
d 0.875 0.125
d 0.875 0.125
d 0.875 0.125
d 0.875 0.125
69
-62
58 -65 -0
65 -58 -0
73 -59 -2
59 -73 -2
69 -71 -4
71 -69 -4
62 -74 -6
74 -62 -6
57 -72 -8
72 -57 -8
57 -72 -10
72 -57 -10
63 -68 -12
68 -63 -12
65 -56 -14
56 -65 -14
66 -64 -16
64 -66 -16
73 -56 -18
56 -73 -18
70 -59 -20
59 -70 -20
61 -72 -22
72 -61 -22
69 -59 -24
59 -69 -24
68 -63 -26
63 -68 -26
58 -59 -28
59 -58 -28
67 -73 -30
73 -67 -30
66 -71 -32
71 -66 -32
66 -71 -34
71 -66 -34
70 -59 -36
59 -70 -36
69 -59 -38
59 -69 -38
67 -59 -40
59 -67 -40
60 -64 -42
64 -60 -42
61 -72 -44
72 -61 -44
58 -56 -46
56 -58 -46
74 -63 -48
63 -74 -48
67 -65 -50
65 -67 -50
68 -59 -52
59 -68 -52
66 -64 -54
64 -66 -54